12
0 39 85 20 34 86 100 45 5 97 29 74 
57 0 26 19 35 18 96 79 37 81 19 70 
13 40 0 29 41 55 90 63 53 40 17 95 
59 27 7 0 91 63 17 65 58 86 15 2 
86 34 76 31 0 62 21 82 28 68 89 5 
99 49 35 58 70 0 8 1 90 14 37 65 
12 31 31 23 3 9 0 91 74 99 39 30 
60 29 10 29 63 61 36 0 56 82 83 2 
49 79 38 59 21 84 41 94 0 59 9 50 
31 56 30 23 29 35 29 79 34 0 30 2 
3 83 41 61 29 26 69 4 40 2 0 67 
14 40 33 34 67 20 55 23 29 46 26 0 
